(set-option :auto-config false)
(set-option :produce-unsat-cores false)
(set-option :smt.mbqi.max_iterations 10000000)
(set-option :smt.relevancy 0)
(declare-fun c0 () (_ BitVec 64))
(define-fun e1 () (_ BitVec 64) (_ bv1024 64))
(define-fun e2 () Bool (bvult c0 e1))
(define-fun e3 () (_ BitVec 64) (_ bv0 64))
(define-fun e4 () (_ BitVec 64) (_ bv9223372023968964300 64))
(declare-fun c5 () (_ BitVec 64))
(define-fun e6 () (_ BitVec 64) (bvand e4 c5))
(define-fun e7 () Bool (= e3 e6))
(define-fun e8 () (_ BitVec 64) (bvneg (_ bv820 64)))
(declare-fun c9 () (_ BitVec 64))
(define-fun e10 () (_ BitVec 64) (bvand e8 c9))
(define-fun e11 () Bool (= e3 e10))
(declare-fun c12 () (_ BitVec 64))
(define-fun e13 () (_ BitVec 64) (bvand e8 c12))
(define-fun e14 () Bool (= e3 e13))
(define-fun e16 ((c15 (_ BitVec 64))) (_ BitVec 1) (_ bv0 1))
(declare-fun c17 () (_ BitVec 64))
(declare-fun c18 () (_ BitVec 64))
(define-fun e19 ((c15 (_ BitVec 64))) Bool (= c17 c18))
(define-fun e20 ((c15 (_ BitVec 64))) (_ BitVec 1) (bvneg (_ bv1 1)))
(define-fun e21 ((c15 (_ BitVec 64))) (_ BitVec 1) (ite (e19 c15) (e16 c15) (e20 c15)))
(define-fun e22 ((c15 (_ BitVec 64))) (_ BitVec 64) (bvor c17 c18))
(define-fun e23 ((c15 (_ BitVec 64))) (_ BitVec 64) (_ bv1024 64))
(define-fun e24 ((c15 (_ BitVec 64))) Bool (bvult (e22 c15) (e23 c15)))
(define-fun e25 ((c15 (_ BitVec 64))) (_ BitVec 1) (ite (e24 c15) (e20 c15) (e16 c15)))
(define-fun e26 ((c15 (_ BitVec 64))) (_ BitVec 1) (bvand (e21 c15) (e25 c15)))
(define-fun e27 ((c15 (_ BitVec 64))) Bool (= (e16 c15) (e26 c15)))
(define-fun e28 ((c15 (_ BitVec 64))) Bool (not (e27 c15)))
(define-fun e29 ((c15 (_ BitVec 64))) (_ BitVec 64) (_ bv0 64))
(declare-fun c30 ((_ BitVec 64)) (_ BitVec 64))
(define-fun e31 ((c15 (_ BitVec 64))) (_ BitVec 64) (_ bv16 64))
(define-fun e32 ((c15 (_ BitVec 64))) (_ BitVec 64) (bvmul (e31 c15) c17))
(define-fun e33 ((c15 (_ BitVec 64))) (_ BitVec 64) (bvudiv (e32 c15) (e31 c15)))
(define-fun e34 ((c15 (_ BitVec 64))) (_ BitVec 64) (c30 (e33 c15)))
(define-fun e35 ((c15 (_ BitVec 64))) Bool (= (e29 c15) (e34 c15)))
(define-fun e36 ((c15 (_ BitVec 64))) (_ BitVec 64) (bvmul (e31 c15) c18))
(define-fun e37 ((c15 (_ BitVec 64))) (_ BitVec 64) (bvudiv (e36 c15) (e31 c15)))
(define-fun e38 ((c15 (_ BitVec 64))) (_ BitVec 64) (c30 (e37 c15)))
(define-fun e39 ((c15 (_ BitVec 64))) Bool (= (e29 c15) (e38 c15)))
(define-fun e40 ((c15 (_ BitVec 64))) Bool (and (e28 c15) (e35 c15) (e39 c15)))
(define-fun e41 ((c15 (_ BitVec 64))) (_ BitVec 64) (_ bv8 64))
(define-fun e42 ((c15 (_ BitVec 64))) (_ BitVec 64) (bvadd (e41 c15) (e36 c15)))
(define-fun e43 ((c15 (_ BitVec 64))) (_ BitVec 64) (bvudiv (e42 c15) (e31 c15)))
(define-fun e44 ((c15 (_ BitVec 64))) Bool (= c15 (e43 c15)))
(define-fun e45 ((c15 (_ BitVec 64))) (_ BitVec 64) (bvadd (e41 c15) (e32 c15)))
(define-fun e46 ((c15 (_ BitVec 64))) (_ BitVec 64) (bvudiv (e45 c15) (e31 c15)))
(define-fun e47 ((c15 (_ BitVec 64))) Bool (= c15 (e46 c15)))
(declare-fun c48 ((_ BitVec 64)) (_ BitVec 64))
(define-fun e49 ((c15 (_ BitVec 64))) (_ BitVec 64) (c48 c15))
(define-fun e50 ((c15 (_ BitVec 64))) (_ BitVec 64) (ite (e47 c15) c17 (e49 c15)))
(define-fun e51 ((c15 (_ BitVec 64))) (_ BitVec 64) (ite (e44 c15) c17 (e50 c15)))
(define-fun e52 ((c15 (_ BitVec 64))) Bool (not (e35 c15)))
(define-fun e53 ((c15 (_ BitVec 64))) Bool (not (e39 c15)))
(define-fun e54 ((c15 (_ BitVec 64))) Bool (and (e35 c15) (e53 c15)))
(define-fun e55 ((c15 (_ BitVec 64))) Bool (or (e52 c15) (e54 c15)))
(define-fun e56 ((c15 (_ BitVec 64))) Bool (and (e28 c15) (e55 c15)))
(define-fun e57 ((c15 (_ BitVec 64))) Bool (or (e27 c15) (e56 c15)))
(define-fun e58 ((c15 (_ BitVec 64))) (_ BitVec 64) (bvor (ite (e40 c15) (e51 c15) (_ bv0 64)) (ite (e57 c15) (e49 c15) (_ bv0 64))))
(define-fun e59 ((c15 (_ BitVec 64))) Bool (bvult (e58 c15) (e23 c15)))
(define-fun e60 ((c15 (_ BitVec 64))) Bool (bvult c15 (e23 c15)))
(define-fun e61 ((c15 (_ BitVec 64))) Bool (= c15 (e37 c15)))
(define-fun e62 ((c15 (_ BitVec 64))) (_ BitVec 64) (_ bv3 64))
(define-fun e63 ((c15 (_ BitVec 64))) Bool (= c15 (e33 c15)))
(define-fun e64 ((c15 (_ BitVec 64))) (_ BitVec 64) (_ bv1 64))
(define-fun e65 ((c15 (_ BitVec 64))) (_ BitVec 64) (c30 c15))
(define-fun e66 ((c15 (_ BitVec 64))) (_ BitVec 64) (ite (e63 c15) (e64 c15) (e65 c15)))
(define-fun e67 ((c15 (_ BitVec 64))) (_ BitVec 64) (ite (e61 c15) (e62 c15) (e66 c15)))
(define-fun e68 ((c15 (_ BitVec 64))) (_ BitVec 64) (bvor (ite (e40 c15) (e67 c15) (_ bv0 64)) (ite (e57 c15) (e65 c15) (_ bv0 64))))
(define-fun e69 ((c15 (_ BitVec 64))) Bool (= (e29 c15) (e68 c15)))
(define-fun e70 ((c15 (_ BitVec 64))) Bool (not (e69 c15)))
(define-fun e71 ((c15 (_ BitVec 64))) Bool (and (e60 c15) (e70 c15)))
(define-fun e72 ((c15 (_ BitVec 64))) Bool (not (e71 c15)))
(define-fun e73 ((c15 (_ BitVec 64))) Bool (or (e59 c15) (e72 c15)))
(define-fun e74 () Bool (forall ((c15 (_ BitVec 64))) (e73 c15)))
(define-fun e75 ((c15 (_ BitVec 64))) (_ BitVec 64) (_ bv4096 64))
(define-fun e76 ((c15 (_ BitVec 64))) (_ BitVec 64) (bvmul (e75 c15) c17))
(define-fun e77 ((c15 (_ BitVec 64))) (_ BitVec 64) (bvadd (e31 c15) (e76 c15)))
(define-fun e78 ((c15 (_ BitVec 64))) (_ BitVec 64) (bvurem (e77 c15) (e75 c15)))
(define-fun e79 ((c15 (_ BitVec 64))) (_ BitVec 64) (bvudiv (e78 c15) (e41 c15)))
(define-fun e80 ((c15 (_ BitVec 64))) Bool (= (e29 c15) (e79 c15)))
(define-fun e81 ((c15 (_ BitVec 64))) (_ BitVec 64) (bvudiv (e77 c15) (e75 c15)))
(define-fun e82 ((c15 (_ BitVec 64))) Bool (= c15 (e81 c15)))
(define-fun e83 ((c15 (_ BitVec 64))) Bool (and (e80 c15) (e82 c15)))
(define-fun e84 ((c15 (_ BitVec 64))) (_ BitVec 64) (bvadd (e41 c15) (e76 c15)))
(define-fun e85 ((c15 (_ BitVec 64))) (_ BitVec 64) (bvurem (e84 c15) (e75 c15)))
(define-fun e86 ((c15 (_ BitVec 64))) (_ BitVec 64) (bvudiv (e85 c15) (e41 c15)))
(define-fun e87 ((c15 (_ BitVec 64))) Bool (= (e29 c15) (e86 c15)))
(define-fun e88 ((c15 (_ BitVec 64))) (_ BitVec 64) (bvudiv (e84 c15) (e75 c15)))
(define-fun e89 ((c15 (_ BitVec 64))) Bool (= c15 (e88 c15)))
(define-fun e90 ((c15 (_ BitVec 64))) Bool (and (e87 c15) (e89 c15)))
(define-fun e91 ((c15 (_ BitVec 64))) (_ BitVec 64) (_ bv2 64))
(define-fun e92 ((c15 (_ BitVec 64))) (_ BitVec 64) (bvurem (e76 c15) (e75 c15)))
(define-fun e93 ((c15 (_ BitVec 64))) (_ BitVec 64) (bvudiv (e92 c15) (e41 c15)))
(define-fun e94 ((c15 (_ BitVec 64))) Bool (= (e29 c15) (e93 c15)))
(define-fun e95 ((c15 (_ BitVec 64))) (_ BitVec 64) (bvudiv (e76 c15) (e75 c15)))
(define-fun e96 ((c15 (_ BitVec 64))) Bool (= c15 (e95 c15)))
(define-fun e97 ((c15 (_ BitVec 64))) Bool (and (e94 c15) (e96 c15)))
(define-fun e98 ((c15 (_ BitVec 64))) (_ BitVec 64) (bvmul (e75 c15) c18))
(define-fun e99 ((c15 (_ BitVec 64))) (_ BitVec 64) (bvurem (e98 c15) (e75 c15)))
(define-fun e100 ((c15 (_ BitVec 64))) (_ BitVec 64) (bvudiv (e99 c15) (e41 c15)))
(define-fun e101 ((c15 (_ BitVec 64))) Bool (= (e29 c15) (e100 c15)))
(define-fun e102 ((c15 (_ BitVec 64))) (_ BitVec 64) (_ bv512 64))
(define-fun e103 ((c15 (_ BitVec 64))) (_ BitVec 64) (bvadd (e102 c15) (e100 c15)))
(define-fun e104 ((c15 (_ BitVec 64))) Bool (= (e29 c15) (e103 c15)))
(define-fun e105 ((c15 (_ BitVec 64))) Bool (not (e104 c15)))
(define-fun e106 ((c15 (_ BitVec 64))) Bool (and (e101 c15) (e105 c15)))
(define-fun e107 ((c15 (_ BitVec 64))) (_ BitVec 64) (bvudiv (e98 c15) (e75 c15)))
(define-fun e108 ((c15 (_ BitVec 64))) Bool (= c15 (e107 c15)))
(define-fun e109 ((c15 (_ BitVec 64))) Bool (and (e106 c15) (e108 c15)))
(define-fun e110 ((c15 (_ BitVec 64))) (_ BitVec 64) (bvadd (e102 c15) (e93 c15)))
(define-fun e111 ((c15 (_ BitVec 64))) Bool (= (e29 c15) (e110 c15)))
(define-fun e112 ((c15 (_ BitVec 64))) Bool (not (e111 c15)))
(define-fun e113 ((c15 (_ BitVec 64))) Bool (and (e94 c15) (e112 c15)))
(define-fun e114 ((c15 (_ BitVec 64))) Bool (and (e96 c15) (e113 c15)))
(declare-fun c115 ((_ BitVec 64) (_ BitVec 64)) (_ BitVec 64))
(define-fun e116 ((c15 (_ BitVec 64))) (_ BitVec 64) (c115 (e29 c15) c15))
(define-fun e117 ((c15 (_ BitVec 64))) (_ BitVec 64) (ite (e114 c15) (e29 c15) (e116 c15)))
(define-fun e118 ((c15 (_ BitVec 64))) (_ BitVec 64) (ite (e109 c15) (e29 c15) (e117 c15)))
(define-fun e119 ((c15 (_ BitVec 64))) (_ BitVec 64) (ite (e97 c15) c18 (e118 c15)))
(define-fun e120 ((c15 (_ BitVec 64))) (_ BitVec 64) (ite (e90 c15) (e91 c15) (e119 c15)))
(define-fun e121 ((c15 (_ BitVec 64))) (_ BitVec 64) (ite (e83 c15) (e29 c15) (e120 c15)))
(define-fun e122 ((c15 (_ BitVec 64))) (_ BitVec 64) (bvor (ite (e40 c15) (e121 c15) (_ bv0 64)) (ite (e57 c15) (e116 c15) (_ bv0 64))))
(define-fun e123 ((c15 (_ BitVec 64))) Bool (bvult (e122 c15) (e23 c15)))
(define-fun e124 ((c15 (_ BitVec 64))) Bool (= (e64 c15) (e68 c15)))
(define-fun e125 ((c15 (_ BitVec 64))) Bool (and (e60 c15) (e124 c15)))
(define-fun e126 ((c15 (_ BitVec 64))) Bool (not (e125 c15)))
(define-fun e127 ((c15 (_ BitVec 64))) Bool (or (e123 c15) (e126 c15)))
(define-fun e128 () Bool (forall ((c15 (_ BitVec 64))) (e127 c15)))
(define-fun e129 ((c15 (_ BitVec 64))) Bool (= c15 (e58 c15)))
(define-fun e130 ((c15 (_ BitVec 64))) Bool (or (e126 c15) (e129 c15)))
(define-fun e131 () Bool (forall ((c15 (_ BitVec 64))) (e130 c15)))
(define-fun e132 ((c15 (_ BitVec 64))) (_ BitVec 64) (_ bv9223372023968964300 64))
(define-fun e133 ((c15 (_ BitVec 64))) (_ BitVec 64) (_ bv40 64))
(define-fun e134 ((c15 (_ BitVec 64))) Bool (= (e133 c15) (e79 c15)))
(define-fun e135 ((c15 (_ BitVec 64))) Bool (and (e82 c15) (e134 c15)))
(define-fun e136 ((c15 (_ BitVec 64))) Bool (= (e133 c15) (e86 c15)))
(define-fun e137 ((c15 (_ BitVec 64))) Bool (and (e89 c15) (e136 c15)))
(define-fun e138 ((c15 (_ BitVec 64))) Bool (= (e133 c15) (e93 c15)))
(define-fun e139 ((c15 (_ BitVec 64))) Bool (and (e96 c15) (e138 c15)))
(define-fun e140 ((c15 (_ BitVec 64))) Bool (bvule (e100 c15) (e133 c15)))
(define-fun e141 ((c15 (_ BitVec 64))) Bool (bvult (e133 c15) (e103 c15)))
(define-fun e142 ((c15 (_ BitVec 64))) Bool (and (e140 c15) (e141 c15)))
(define-fun e143 ((c15 (_ BitVec 64))) Bool (and (e108 c15) (e142 c15)))
(define-fun e144 ((c15 (_ BitVec 64))) Bool (bvule (e93 c15) (e133 c15)))
(define-fun e145 ((c15 (_ BitVec 64))) Bool (bvult (e133 c15) (e110 c15)))
(define-fun e146 ((c15 (_ BitVec 64))) Bool (and (e144 c15) (e145 c15)))
(define-fun e147 ((c15 (_ BitVec 64))) Bool (and (e96 c15) (e146 c15)))
(define-fun e148 ((c15 (_ BitVec 64))) (_ BitVec 64) (c115 (e133 c15) c15))
(define-fun e149 ((c15 (_ BitVec 64))) (_ BitVec 64) (ite (e147 c15) (e29 c15) (e148 c15)))
(define-fun e150 ((c15 (_ BitVec 64))) (_ BitVec 64) (ite (e143 c15) (e29 c15) (e149 c15)))
(define-fun e151 ((c15 (_ BitVec 64))) (_ BitVec 64) (ite (e139 c15) c18 (e150 c15)))
(define-fun e152 ((c15 (_ BitVec 64))) (_ BitVec 64) (ite (e137 c15) (e91 c15) (e151 c15)))
(define-fun e153 ((c15 (_ BitVec 64))) (_ BitVec 64) (ite (e135 c15) (e29 c15) (e152 c15)))
(define-fun e154 ((c15 (_ BitVec 64))) (_ BitVec 64) (bvor (ite (e40 c15) (e153 c15) (_ bv0 64)) (ite (e57 c15) (e148 c15) (_ bv0 64))))
(define-fun e155 ((c15 (_ BitVec 64))) (_ BitVec 64) (bvand (e132 c15) (e154 c15)))
(define-fun e156 ((c15 (_ BitVec 64))) Bool (= (e29 c15) (e155 c15)))
(define-fun e157 ((c15 (_ BitVec 64))) (_ BitVec 64) (bvneg (_ bv820 64)))
(define-fun e158 ((c15 (_ BitVec 64))) (_ BitVec 64) (_ bv42 64))
(define-fun e159 ((c15 (_ BitVec 64))) Bool (= (e158 c15) (e79 c15)))
(define-fun e160 ((c15 (_ BitVec 64))) Bool (and (e82 c15) (e159 c15)))
(define-fun e161 ((c15 (_ BitVec 64))) Bool (= (e158 c15) (e86 c15)))
(define-fun e162 ((c15 (_ BitVec 64))) Bool (and (e89 c15) (e161 c15)))
(define-fun e163 ((c15 (_ BitVec 64))) Bool (= (e158 c15) (e93 c15)))
(define-fun e164 ((c15 (_ BitVec 64))) Bool (and (e96 c15) (e163 c15)))
(define-fun e165 ((c15 (_ BitVec 64))) Bool (bvule (e100 c15) (e158 c15)))
(define-fun e166 ((c15 (_ BitVec 64))) Bool (bvult (e158 c15) (e103 c15)))
(define-fun e167 ((c15 (_ BitVec 64))) Bool (and (e165 c15) (e166 c15)))
(define-fun e168 ((c15 (_ BitVec 64))) Bool (and (e108 c15) (e167 c15)))
(define-fun e169 ((c15 (_ BitVec 64))) Bool (bvule (e93 c15) (e158 c15)))
(define-fun e170 ((c15 (_ BitVec 64))) Bool (bvult (e158 c15) (e110 c15)))
(define-fun e171 ((c15 (_ BitVec 64))) Bool (and (e169 c15) (e170 c15)))
(define-fun e172 ((c15 (_ BitVec 64))) Bool (and (e96 c15) (e171 c15)))
(define-fun e173 ((c15 (_ BitVec 64))) (_ BitVec 64) (c115 (e158 c15) c15))
(define-fun e174 ((c15 (_ BitVec 64))) (_ BitVec 64) (ite (e172 c15) (e29 c15) (e173 c15)))
(define-fun e175 ((c15 (_ BitVec 64))) (_ BitVec 64) (ite (e168 c15) (e29 c15) (e174 c15)))
(define-fun e176 ((c15 (_ BitVec 64))) (_ BitVec 64) (ite (e164 c15) c18 (e175 c15)))
(define-fun e177 ((c15 (_ BitVec 64))) (_ BitVec 64) (ite (e162 c15) (e91 c15) (e176 c15)))
(define-fun e178 ((c15 (_ BitVec 64))) (_ BitVec 64) (ite (e160 c15) (e29 c15) (e177 c15)))
(define-fun e179 ((c15 (_ BitVec 64))) (_ BitVec 64) (bvor (ite (e40 c15) (e178 c15) (_ bv0 64)) (ite (e57 c15) (e173 c15) (_ bv0 64))))
(define-fun e180 ((c15 (_ BitVec 64))) (_ BitVec 64) (bvand (e157 c15) (e179 c15)))
(define-fun e181 ((c15 (_ BitVec 64))) Bool (= (e29 c15) (e180 c15)))
(define-fun e182 ((c15 (_ BitVec 64))) (_ BitVec 64) (_ bv37 64))
(define-fun e183 ((c15 (_ BitVec 64))) Bool (= (e182 c15) (e79 c15)))
(define-fun e184 ((c15 (_ BitVec 64))) Bool (and (e82 c15) (e183 c15)))
(define-fun e185 ((c15 (_ BitVec 64))) Bool (= (e182 c15) (e86 c15)))
(define-fun e186 ((c15 (_ BitVec 64))) Bool (and (e89 c15) (e185 c15)))
(define-fun e187 ((c15 (_ BitVec 64))) Bool (= (e182 c15) (e93 c15)))
(define-fun e188 ((c15 (_ BitVec 64))) Bool (and (e96 c15) (e187 c15)))
(define-fun e189 ((c15 (_ BitVec 64))) Bool (bvule (e100 c15) (e182 c15)))
(define-fun e190 ((c15 (_ BitVec 64))) Bool (bvult (e182 c15) (e103 c15)))
(define-fun e191 ((c15 (_ BitVec 64))) Bool (and (e189 c15) (e190 c15)))
(define-fun e192 ((c15 (_ BitVec 64))) Bool (and (e108 c15) (e191 c15)))
(define-fun e193 ((c15 (_ BitVec 64))) Bool (bvule (e93 c15) (e182 c15)))
(define-fun e194 ((c15 (_ BitVec 64))) Bool (bvult (e182 c15) (e110 c15)))
(define-fun e195 ((c15 (_ BitVec 64))) Bool (and (e193 c15) (e194 c15)))
(define-fun e196 ((c15 (_ BitVec 64))) Bool (and (e96 c15) (e195 c15)))
(define-fun e197 ((c15 (_ BitVec 64))) (_ BitVec 64) (c115 (e182 c15) c15))
(define-fun e198 ((c15 (_ BitVec 64))) (_ BitVec 64) (ite (e196 c15) (e29 c15) (e197 c15)))
(define-fun e199 ((c15 (_ BitVec 64))) (_ BitVec 64) (ite (e192 c15) (e29 c15) (e198 c15)))
(define-fun e200 ((c15 (_ BitVec 64))) (_ BitVec 64) (ite (e188 c15) c18 (e199 c15)))
(define-fun e201 ((c15 (_ BitVec 64))) (_ BitVec 64) (ite (e186 c15) (e91 c15) (e200 c15)))
(define-fun e202 ((c15 (_ BitVec 64))) (_ BitVec 64) (ite (e184 c15) (e29 c15) (e201 c15)))
(define-fun e203 ((c15 (_ BitVec 64))) (_ BitVec 64) (bvor (ite (e40 c15) (e202 c15) (_ bv0 64)) (ite (e57 c15) (e197 c15) (_ bv0 64))))
(define-fun e204 ((c15 (_ BitVec 64))) (_ BitVec 64) (bvand (e157 c15) (e203 c15)))
(define-fun e205 ((c15 (_ BitVec 64))) Bool (= (e29 c15) (e204 c15)))
(define-fun e206 ((c15 (_ BitVec 64))) Bool (and (e156 c15) (e181 c15) (e205 c15)))
(define-fun e207 ((c15 (_ BitVec 64))) Bool (= (e91 c15) (e68 c15)))
(define-fun e208 ((c15 (_ BitVec 64))) Bool (and (e60 c15) (e207 c15)))
(define-fun e209 ((c15 (_ BitVec 64))) Bool (not (e208 c15)))
(define-fun e210 ((c15 (_ BitVec 64))) Bool (or (e206 c15) (e209 c15)))
(define-fun e211 () Bool (forall ((c15 (_ BitVec 64))) (e210 c15)))
(define-fun e212 () (_ BitVec 8) (_ bv0 8))
(declare-fun c213 () (_ BitVec 8))
(define-fun e214 () Bool (= e212 c213))
(define-fun e215 () (_ BitVec 64) (_ bv2 64))
(define-fun e216 () (_ BitVec 1) (_ bv0 1))
(define-fun e217 () Bool (= c17 c18))
(define-fun e218 () (_ BitVec 1) (bvneg (_ bv1 1)))
(define-fun e219 () (_ BitVec 1) (ite e217 e216 e218))
(define-fun e220 () (_ BitVec 64) (bvor c17 c18))
(define-fun e221 () Bool (bvult e220 e1))
(define-fun e222 () (_ BitVec 1) (ite e221 e218 e216))
(define-fun e223 () (_ BitVec 1) (bvand e219 e222))
(define-fun e224 () Bool (= e216 e223))
(define-fun e225 () Bool (not e224))
(define-fun e226 () (_ BitVec 64) (_ bv16 64))
(define-fun e227 () (_ BitVec 64) (bvmul e226 c17))
(define-fun e228 () (_ BitVec 64) (bvudiv e227 e226))
(define-fun e229 () (_ BitVec 64) (c30 e228))
(define-fun e230 () Bool (= e3 e229))
(define-fun e231 () (_ BitVec 64) (bvmul e226 c18))
(define-fun e232 () (_ BitVec 64) (bvudiv e231 e226))
(define-fun e233 () (_ BitVec 64) (c30 e232))
(define-fun e234 () Bool (= e3 e233))
(define-fun e235 () Bool (and e225 e230 e234))
(define-fun e236 () Bool (= c0 e232))
(define-fun e237 () (_ BitVec 64) (_ bv3 64))
(define-fun e238 () Bool (= c0 e228))
(define-fun e239 () (_ BitVec 64) (_ bv1 64))
(define-fun e240 () (_ BitVec 64) (c30 c0))
(define-fun e241 () (_ BitVec 64) (ite e238 e239 e240))
(define-fun e242 () (_ BitVec 64) (ite e236 e237 e241))
(define-fun e243 () Bool (not e230))
(define-fun e244 () Bool (not e234))
(define-fun e245 () Bool (and e230 e244))
(define-fun e246 () Bool (or e243 e245))
(define-fun e247 () Bool (and e225 e246))
(define-fun e248 () Bool (or e224 e247))
(define-fun e249 () (_ BitVec 64) (bvor (ite e235 e242 (_ bv0 64)) (ite e248 e240 (_ bv0 64))))
(define-fun e250 () Bool (= e215 e249))
(define-fun e251 () Bool (and e2 e250))
(define-fun e252 () Bool (or e214 e251))
(define-fun e253 () Bool (and e2 e7 e11 e14 e74 e128 e131 e211 e252))
(define-fun e254 ((c15 (_ BitVec 64))) Bool (bvult (e49 c15) (e23 c15)))
(define-fun e255 ((c15 (_ BitVec 64))) Bool (= (e29 c15) (e65 c15)))
(define-fun e256 ((c15 (_ BitVec 64))) Bool (not (e255 c15)))
(define-fun e257 ((c15 (_ BitVec 64))) Bool (and (e60 c15) (e256 c15)))
(define-fun e258 ((c15 (_ BitVec 64))) Bool (not (e257 c15)))
(define-fun e259 ((c15 (_ BitVec 64))) Bool (or (e254 c15) (e258 c15)))
(define-fun e260 () Bool (forall ((c15 (_ BitVec 64))) (e259 c15)))
(define-fun e261 ((c15 (_ BitVec 64))) Bool (bvult (e116 c15) (e23 c15)))
(define-fun e262 ((c15 (_ BitVec 64))) Bool (= (e64 c15) (e65 c15)))
(define-fun e263 ((c15 (_ BitVec 64))) Bool (and (e60 c15) (e262 c15)))
(define-fun e264 ((c15 (_ BitVec 64))) Bool (not (e263 c15)))
(define-fun e265 ((c15 (_ BitVec 64))) Bool (or (e261 c15) (e264 c15)))
(define-fun e266 () Bool (forall ((c15 (_ BitVec 64))) (e265 c15)))
(define-fun e267 ((c15 (_ BitVec 64))) Bool (= c15 (e49 c15)))
(define-fun e268 ((c15 (_ BitVec 64))) Bool (or (e264 c15) (e267 c15)))
(define-fun e269 () Bool (forall ((c15 (_ BitVec 64))) (e268 c15)))
(define-fun e270 ((c15 (_ BitVec 64))) (_ BitVec 64) (bvand (e132 c15) (e148 c15)))
(define-fun e271 ((c15 (_ BitVec 64))) Bool (= (e29 c15) (e270 c15)))
(define-fun e272 ((c15 (_ BitVec 64))) (_ BitVec 64) (bvand (e157 c15) (e173 c15)))
(define-fun e273 ((c15 (_ BitVec 64))) Bool (= (e29 c15) (e272 c15)))
(define-fun e274 ((c15 (_ BitVec 64))) (_ BitVec 64) (bvand (e157 c15) (e197 c15)))
(define-fun e275 ((c15 (_ BitVec 64))) Bool (= (e29 c15) (e274 c15)))
(define-fun e276 ((c15 (_ BitVec 64))) Bool (and (e271 c15) (e273 c15) (e275 c15)))
(define-fun e277 ((c15 (_ BitVec 64))) Bool (= (e91 c15) (e65 c15)))
(define-fun e278 ((c15 (_ BitVec 64))) Bool (and (e60 c15) (e277 c15)))
(define-fun e279 ((c15 (_ BitVec 64))) Bool (not (e278 c15)))
(define-fun e280 ((c15 (_ BitVec 64))) Bool (or (e276 c15) (e279 c15)))
(define-fun e281 () Bool (forall ((c15 (_ BitVec 64))) (e280 c15)))
(define-fun e282 () Bool (= e215 e240))
(define-fun e283 () Bool (and e2 e282))
(define-fun e284 () Bool (or e214 e283))
(define-fun e285 () Bool (and e260 e266 e269 e281 e2 e284 e7 e11 e14))
(declare-fun c286 () (_ BitVec 64))
(define-fun e287 () Bool (= e3 c286))
(declare-fun c288 () (_ BitVec 64))
(define-fun e289 () Bool (= e3 c288))
(declare-fun c290 () (_ BitVec 64))
(define-fun e291 () Bool (= e3 c290))
(declare-fun c292 () (_ BitVec 64))
(define-fun e293 () Bool (= e3 c292))
(declare-fun c294 () (_ BitVec 64))
(define-fun e295 () Bool (= e3 c294))
(declare-fun c296 () (_ BitVec 64))
(define-fun e297 () Bool (= e3 c296))
(declare-fun c298 () (_ BitVec 64))
(define-fun e299 () Bool (= e3 c298))
(declare-fun c300 () (_ BitVec 64))
(define-fun e301 () Bool (= e3 c300))
(declare-fun c302 () (_ BitVec 64))
(define-fun e303 () Bool (= e3 c302))
(declare-fun c304 () (_ BitVec 64))
(declare-fun c305 () (_ BitVec 64))
(define-fun e306 () Bool (= c304 c305))
(declare-fun c307 () (_ BitVec 64))
(define-fun e308 () Bool (= e3 c307))
(declare-fun c309 () (_ BitVec 64))
(define-fun e310 () Bool (= e3 c309))
(declare-fun c311 () (_ BitVec 64))
(define-fun e312 () Bool (= e3 c311))
(declare-fun c313 () (_ BitVec 64))
(define-fun e314 () Bool (= e3 c313))
(declare-fun c315 () (_ BitVec 64))
(define-fun e316 () Bool (= e3 c315))
(declare-fun c317 () (_ BitVec 64))
(define-fun e318 () Bool (= e3 c317))
(declare-fun c319 () (_ BitVec 64))
(define-fun e320 () Bool (= e3 c319))
(declare-fun c321 () (_ BitVec 64))
(define-fun e322 () Bool (= e3 c321))
(declare-fun c323 () (_ BitVec 64))
(define-fun e324 () Bool (= e3 c323))
(declare-fun c325 () (_ BitVec 64))
(define-fun e326 () Bool (= e3 c325))
(declare-fun c327 () (_ BitVec 64))
(define-fun e328 () Bool (= e3 c327))
(declare-fun c329 () (_ BitVec 64))
(define-fun e330 () Bool (= e3 c329))
(declare-fun c331 () (_ BitVec 64))
(define-fun e332 () Bool (= e3 c331))
(declare-fun c333 () (_ BitVec 64))
(define-fun e334 () Bool (= e3 c333))
(declare-fun c335 () (_ BitVec 64))
(define-fun e336 () Bool (= e3 c335))
(declare-fun c337 () (_ BitVec 64))
(define-fun e338 () Bool (= e3 c337))
(declare-fun c339 () (_ BitVec 64))
(define-fun e340 () Bool (= e3 c339))
(declare-fun c341 () (_ BitVec 64))
(define-fun e342 () Bool (= e3 c341))
(declare-fun c343 () (_ BitVec 64))
(define-fun e344 () Bool (= e3 c343))
(declare-fun c345 () (_ BitVec 64))
(define-fun e346 () Bool (= e3 c345))
(declare-fun c347 () (_ BitVec 64))
(define-fun e348 () Bool (= e3 c347))
(declare-fun c349 () (_ BitVec 64))
(define-fun e350 () Bool (= e3 c349))
(declare-fun c351 () (_ BitVec 64))
(define-fun e352 () Bool (= e3 c351))
(declare-fun c353 () (_ BitVec 64))
(define-fun e354 () Bool (= e3 c353))
(declare-fun c355 () (_ BitVec 64))
(define-fun e356 () Bool (= e3 c355))
(declare-fun c357 () (_ BitVec 64))
(define-fun e358 () Bool (= e3 c357))
(declare-fun c359 () (_ BitVec 64))
(define-fun e360 () Bool (= e3 c359))
(declare-fun c361 () (_ BitVec 64))
(define-fun e362 () Bool (= e3 c361))
(declare-fun c363 () (_ BitVec 64))
(define-fun e364 () Bool (= e3 c363))
(declare-fun c365 () (_ BitVec 64))
(define-fun e366 () Bool (= e3 c365))
(declare-fun c367 () (_ BitVec 64))
(define-fun e368 () Bool (= e3 c367))
(declare-fun c369 () (_ BitVec 64))
(define-fun e370 () Bool (= e3 c369))
(define-fun e371 () Bool (and e287 e289 e291 e293 e295 e297 e299 e301 e303 e306 e308 e310 e312 e314 e316 e318 e320 e322 e324 e326 e328 e330 e332 e334 e336 e338 e340 e342 e344 e346 e348 e350 e352 e354 e356 e358 e360 e362 e364 e366 e368 e370))
(declare-fun c372 () (_ BitVec 64))
(declare-fun c373 () (_ BitVec 64))
(define-fun e374 () Bool (= c372 c373))
(declare-fun c375 () (_ BitVec 64))
(declare-fun c376 () (_ BitVec 64))
(define-fun e377 () Bool (= c375 c376))
(declare-fun c378 () (_ BitVec 64))
(declare-fun c379 () (_ BitVec 64))
(define-fun e380 () Bool (= c378 c379))
(declare-fun c381 () (_ BitVec 64))
(declare-fun c382 () (_ BitVec 64))
(define-fun e383 () Bool (= c381 c382))
(declare-fun c384 () (_ BitVec 64))
(declare-fun c385 () (_ BitVec 64))
(define-fun e386 () Bool (= c384 c385))
(declare-fun c387 () (_ BitVec 64))
(declare-fun c388 () (_ BitVec 64))
(define-fun e389 () Bool (= c387 c388))
(declare-fun c390 () (_ BitVec 64))
(declare-fun c391 () (_ BitVec 64))
(define-fun e392 () Bool (= c390 c391))
(declare-fun c393 () (_ BitVec 64))
(declare-fun c394 () (_ BitVec 64))
(define-fun e395 () Bool (= c393 c394))
(declare-fun c396 () (_ BitVec 64))
(declare-fun c397 () (_ BitVec 64))
(define-fun e398 () Bool (= c396 c397))
(declare-fun c399 () (_ BitVec 64))
(declare-fun c400 () (_ BitVec 64))
(define-fun e401 () Bool (= c399 c400))
(declare-fun c402 () (_ BitVec 64))
(declare-fun c403 () (_ BitVec 64))
(define-fun e404 () Bool (= c402 c403))
(declare-fun c405 () (_ BitVec 64))
(declare-fun c406 () (_ BitVec 64))
(define-fun e407 () Bool (= c405 c406))
(declare-fun c408 () (_ BitVec 64))
(declare-fun c409 () (_ BitVec 64))
(define-fun e410 () Bool (= c408 c409))
(declare-fun c411 () (_ BitVec 64))
(declare-fun c412 () (_ BitVec 64))
(define-fun e413 () Bool (= c411 c412))
(declare-fun c414 () (_ BitVec 64))
(declare-fun c415 () (_ BitVec 64))
(define-fun e416 () Bool (= c414 c415))
(declare-fun c417 () (_ BitVec 64))
(declare-fun c418 () (_ BitVec 64))
(define-fun e419 () Bool (= c417 c418))
(declare-fun c420 () (_ BitVec 64))
(declare-fun c421 () (_ BitVec 64))
(define-fun e422 () Bool (= c420 c421))
(declare-fun c423 () (_ BitVec 64))
(declare-fun c424 () (_ BitVec 64))
(define-fun e425 () Bool (= c423 c424))
(declare-fun c426 () (_ BitVec 64))
(declare-fun c427 () (_ BitVec 64))
(define-fun e428 () Bool (= c426 c427))
(declare-fun c429 () (_ BitVec 64))
(declare-fun c430 () (_ BitVec 64))
(define-fun e431 () Bool (= c429 c430))
(declare-fun c432 () (_ BitVec 64))
(declare-fun c433 () (_ BitVec 64))
(define-fun e434 () Bool (= c432 c433))
(declare-fun c435 () (_ BitVec 64))
(declare-fun c436 () (_ BitVec 64))
(define-fun e437 () Bool (= c435 c436))
(declare-fun c438 () (_ BitVec 64))
(declare-fun c439 () (_ BitVec 64))
(define-fun e440 () Bool (= c438 c439))
(declare-fun c441 () (_ BitVec 64))
(declare-fun c442 () (_ BitVec 64))
(define-fun e443 () Bool (= c441 c442))
(declare-fun c444 () (_ BitVec 64))
(declare-fun c445 () (_ BitVec 64))
(define-fun e446 () Bool (= c444 c445))
(declare-fun c447 () (_ BitVec 64))
(declare-fun c448 () (_ BitVec 64))
(define-fun e449 () Bool (= c447 c448))
(declare-fun c450 () (_ BitVec 64))
(declare-fun c451 () (_ BitVec 64))
(define-fun e452 () Bool (= c450 c451))
(declare-fun c453 () (_ BitVec 64))
(declare-fun c454 () (_ BitVec 64))
(define-fun e455 () Bool (= c453 c454))
(declare-fun c456 () (_ BitVec 64))
(declare-fun c457 () (_ BitVec 64))
(define-fun e458 () Bool (= c456 c457))
(declare-fun c459 () (_ BitVec 64))
(declare-fun c460 () (_ BitVec 64))
(define-fun e461 () Bool (= c459 c460))
(declare-fun c462 () (_ BitVec 64))
(declare-fun c463 () (_ BitVec 64))
(define-fun e464 () Bool (= c462 c463))
(declare-fun c465 () (_ BitVec 64))
(declare-fun c466 () (_ BitVec 64))
(define-fun e467 () Bool (= c465 c466))
(declare-fun c468 () (_ BitVec 64))
(declare-fun c469 () (_ BitVec 64))
(define-fun e470 () Bool (= c468 c469))
(declare-fun c471 () (_ BitVec 64))
(declare-fun c472 () (_ BitVec 64))
(define-fun e473 () Bool (= c471 c472))
(declare-fun c474 () (_ BitVec 64))
(declare-fun c475 () (_ BitVec 64))
(define-fun e476 () Bool (= c474 c475))
(declare-fun c477 () (_ BitVec 64))
(declare-fun c478 () (_ BitVec 64))
(define-fun e479 () Bool (= c477 c478))
(declare-fun c480 () (_ BitVec 64))
(define-fun e481 () Bool (= c480 c5))
(declare-fun c482 () (_ BitVec 64))
(declare-fun c483 () (_ BitVec 64))
(define-fun e484 () Bool (= c482 c483))
(declare-fun c485 () (_ BitVec 64))
(declare-fun c486 () (_ BitVec 64))
(define-fun e487 () Bool (= c485 c486))
(declare-fun c488 () (_ BitVec 64))
(declare-fun c489 () (_ BitVec 64))
(define-fun e490 () Bool (= c488 c489))
(declare-fun c491 () (_ BitVec 64))
(define-fun e492 () Bool (= c491 c12))
(declare-fun c493 () (_ BitVec 64))
(define-fun e494 () Bool (= c493 c9))
(define-fun e495 () Bool (and e374 e377 e380 e383 e386 e389 e392 e395 e398 e401 e404 e407 e410 e413 e416 e419 e422 e425 e428 e431 e434 e437 e440 e443 e446 e449 e452 e455 e458 e461 e464 e467 e470 e473 e476 e479 e481 e484 e487 e490 e492 e494))
(declare-fun c496 () (_ BitVec 64))
(define-fun e497 () Bool (= c496 c0))
(declare-fun c498 () Bool)
(define-fun e499 () Bool (not e214))
(define-fun e500 () Bool (and (=> c498 e499) (=> e499 c498)))
(declare-fun c502 ((_ BitVec 64)) (_ BitVec 64))
(define-fun e503 ((c501 (_ BitVec 64))) (_ BitVec 64) (c502 c501))
(define-fun e504 ((c501 (_ BitVec 64))) (_ BitVec 64) (c30 c501))
(define-fun e505 ((c501 (_ BitVec 64))) Bool (= (e503 c501) (e504 c501)))
(declare-fun c506 ((_ BitVec 64)) (_ BitVec 64))
(define-fun e507 ((c501 (_ BitVec 64))) (_ BitVec 64) (c506 c501))
(define-fun e508 ((c501 (_ BitVec 64))) (_ BitVec 64) (c48 c501))
(define-fun e509 ((c501 (_ BitVec 64))) Bool (= (e507 c501) (e508 c501)))
(define-fun e510 ((c501 (_ BitVec 64))) Bool (and (e505 c501) (e509 c501)))
(define-fun e511 ((c501 (_ BitVec 64))) (_ BitVec 64) (_ bv1024 64))
(define-fun e512 ((c501 (_ BitVec 64))) Bool (bvult c501 (e511 c501)))
(define-fun e513 ((c501 (_ BitVec 64))) Bool (not (e512 c501)))
(define-fun e514 ((c501 (_ BitVec 64))) Bool (or (e510 c501) (e513 c501)))
(define-fun e515 () Bool (forall ((c501 (_ BitVec 64))) (e514 c501)))
(declare-fun c517 ((_ BitVec 64) (_ BitVec 64)) (_ BitVec 64))
(define-fun e518 ((c501 (_ BitVec 64)) (c516 (_ BitVec 64))) (_ BitVec 64) (c517 c501 c516))
(define-fun e519 ((c501 (_ BitVec 64)) (c516 (_ BitVec 64))) (_ BitVec 64) (c115 c516 c501))
(define-fun e520 ((c501 (_ BitVec 64)) (c516 (_ BitVec 64))) Bool (= (e518 c501 c516) (e519 c501 c516)))
(define-fun e521 ((c501 (_ BitVec 64)) (c516 (_ BitVec 64))) (_ BitVec 64) (_ bv1024 64))
(define-fun e522 ((c501 (_ BitVec 64)) (c516 (_ BitVec 64))) Bool (bvult c501 (e521 c501 c516)))
(define-fun e523 ((c501 (_ BitVec 64)) (c516 (_ BitVec 64))) (_ BitVec 64) (_ bv512 64))
(define-fun e524 ((c501 (_ BitVec 64)) (c516 (_ BitVec 64))) Bool (bvult c516 (e523 c501 c516)))
(define-fun e525 ((c501 (_ BitVec 64)) (c516 (_ BitVec 64))) Bool (and (e522 c501 c516) (e524 c501 c516)))
(define-fun e526 ((c501 (_ BitVec 64)) (c516 (_ BitVec 64))) Bool (not (e525 c501 c516)))
(define-fun e527 ((c501 (_ BitVec 64)) (c516 (_ BitVec 64))) Bool (or (e520 c501 c516) (e526 c501 c516)))
(define-fun e528 () Bool (forall ((c501 (_ BitVec 64)) (c516 (_ BitVec 64))) (e527 c501 c516)))
(declare-fun c529 ((_ BitVec 64) (_ BitVec 64)) (_ BitVec 64))
(define-fun e530 ((c501 (_ BitVec 64)) (c516 (_ BitVec 64))) (_ BitVec 64) (c529 c501 c516))
(declare-fun c531 ((_ BitVec 64) (_ BitVec 64)) (_ BitVec 64))
(define-fun e532 ((c501 (_ BitVec 64)) (c516 (_ BitVec 64))) (_ BitVec 64) (c531 c516 c501))
(define-fun e533 ((c501 (_ BitVec 64)) (c516 (_ BitVec 64))) Bool (= (e530 c501 c516) (e532 c501 c516)))
(define-fun e534 ((c501 (_ BitVec 64)) (c516 (_ BitVec 64))) (_ BitVec 64) (_ bv256 64))
(define-fun e535 ((c501 (_ BitVec 64)) (c516 (_ BitVec 64))) Bool (bvult c501 (e534 c501 c516)))
(define-fun e536 ((c501 (_ BitVec 64)) (c516 (_ BitVec 64))) Bool (and (e524 c501 c516) (e535 c501 c516)))
(define-fun e537 ((c501 (_ BitVec 64)) (c516 (_ BitVec 64))) Bool (not (e536 c501 c516)))
(define-fun e538 ((c501 (_ BitVec 64)) (c516 (_ BitVec 64))) Bool (or (e533 c501 c516) (e537 c501 c516)))
(define-fun e539 () Bool (forall ((c501 (_ BitVec 64)) (c516 (_ BitVec 64))) (e538 c501 c516)))
(define-fun e540 () Bool (and e371 e495 e497 e500 e515 e528 e539))
(define-fun e541 () Bool (and e285 e540))
(define-fun e542 () Bool (not e541))
(define-fun e543 () Bool (or e253 e542))
(define-fun e544 () Bool (not e543))
(push 1)
(assert e544)
(check-sat)
